120884.38
31 29 63 43 47 48 30 109 112 54 111 116 110 118 2 49 1 35 28 25 61 40 46 21 22 24 23 45 32 55 126 38 37 19 18 62 17 20 53 14 12 11 5 6 7 4 10 9 3 71 8 82 85 67 86 87 72 74 26 52 123 122 125 124 27 121 0 36 66 73 56 76 51 113 114 68 115 60 119 57 120 117 108 39 107 103 99 98 65 64 70 41 50 69 42 78 44 83 80 84 81 13 15 16 94 90 93 75 77 79 100 104 106 97 105 102 101 89 88 92 95 96 58 91 33 34 59